-307 -325 0
-323 -18 -325 0
-18 -325 0
d -323 -18 -325 0
-325 0
1 0
-19 0
307 0
37 0
-289 0
-55 0
-20 0
323 0
22 0
322 0
308 0
-305 0
-40 0
-4 0
-304 0
-290 0
17 0
242 0
2 0
103 0
67 0
292 0
82 0
83 0
118 0
226 0
262 0
16 0
241 0
227 0
-259 0
-260 0
-35 0
-50 0
-275 0
-280 0
-295 0
-49 0
-64 0
-65 0
-224 0
-209 0
-34 0
-70 0
-274 0
-121 0
-136 0
-8 0
-9 0
-85 0
-100 0
-310 0
-115 0
-5 0
-101 0
-116 0
-151 0
-7 0
-244 0
-208 0
-193 0
-229 0
-245 0
-265 0
-79 0
-80 0
-223 0
-14 0
-194 0
196 0
197 0
143 0
98 0
113 0
158 0
212 0
217 0
0
